experiment/data/hgs-res/Vrp-Set-Golden-n324/Vrp-Set-Golden-n324-hgs/0.hgs1.vrp
NAME : 0
COMMENT : CVRP Instance
TYPE : CVRP
DIMENSION : 324
EDGE_WEIGHT_TYPE : EUC_2D
CAPACITY : 1000
NODE_COORD_SECTION
1	0.0	-17.0
2	-1.0	-16.0
3	1.0	-16.0
4	-2.0	-15.0
5	0.0	-15.0
6	2.0	-15.0
7	-3.0	-14.0
8	-1.0	-14.0
9	1.0	-14.0
10	3.0	-14.0
11	-4.0	-13.0
12	-2.0	-13.0
13	0.0	-13.0
14	2.0	-13.0
15	4.0	-13.0
16	-5.0	-12.0
17	-3.0	-12.0
18	-1.0	-12.0
19	1.0	-12.0
20	3.0	-12.0
21	5.0	-12.0
22	-6.0	-11.0
23	-4.0	-11.0
24	-2.0	-11.0
25	0.0	-11.0
26	2.0	-11.0
27	4.0	-11.0
28	6.0	-11.0
29	-7.0	-10.0
30	-5.0	-10.0
31	-3.0	-10.0
32	-1.0	-10.0
33	1.0	-10.0
34	3.0	-10.0
35	5.0	-10.0
36	7.0	-10.0
37	-8.0	-9.0
38	-6.0	-9.0
39	-4.0	-9.0
40	-2.0	-9.0
41	0.0	-9.0
42	2.0	-9.0
43	4.0	-9.0
44	6.0	-9.0
45	8.0	-9.0
46	-9.0	-8.0
47	-7.0	-8.0
48	-5.0	-8.0
49	-3.0	-8.0
50	-1.0	-8.0
51	1.0	-8.0
52	3.0	-8.0
53	5.0	-8.0
54	7.0	-8.0
55	9.0	-8.0
56	-10.0	-7.0
57	-8.0	-7.0
58	-6.0	-7.0
59	-4.0	-7.0
60	-2.0	-7.0
61	0.0	-7.0
62	2.0	-7.0
63	4.0	-7.0
64	6.0	-7.0
65	8.0	-7.0
66	10.0	-7.0
67	-11.0	-6.0
68	-9.0	-6.0
69	-7.0	-6.0
70	-5.0	-6.0
71	-3.0	-6.0
72	-1.0	-6.0
73	1.0	-6.0
74	3.0	-6.0
75	5.0	-6.0
76	7.0	-6.0
77	9.0	-6.0
78	11.0	-6.0
79	-12.0	-5.0
80	-10.0	-5.0
81	-8.0	-5.0
82	-6.0	-5.0
83	-4.0	-5.0
84	-2.0	-5.0
85	0.0	-5.0
86	2.0	-5.0
87	4.0	-5.0
88	6.0	-5.0
89	8.0	-5.0
90	10.0	-5.0
91	12.0	-5.0
92	-13.0	-4.0
93	-11.0	-4.0
94	-9.0	-4.0
95	-7.0	-4.0
96	-5.0	-4.0
97	-3.0	-4.0
98	-1.0	-4.0
99	1.0	-4.0
100	3.0	-4.0
101	5.0	-4.0
102	7.0	-4.0
103	9.0	-4.0
104	11.0	-4.0
105	13.0	-4.0
106	-14.0	-3.0
107	-12.0	-3.0
108	-10.0	-3.0
109	-8.0	-3.0
110	-6.0	-3.0
111	-4.0	-3.0
112	-2.0	-3.0
113	0.0	-3.0
114	2.0	-3.0
115	4.0	-3.0
116	6.0	-3.0
117	8.0	-3.0
118	10.0	-3.0
119	12.0	-3.0
120	14.0	-3.0
121	-15.0	-2.0
122	-13.0	-2.0
123	-11.0	-2.0
124	-9.0	-2.0
125	-7.0	-2.0
126	-5.0	-2.0
127	-3.0	-2.0
128	-1.0	-2.0
129	1.0	-2.0
130	3.0	-2.0
131	5.0	-2.0
132	7.0	-2.0
133	9.0	-2.0
134	11.0	-2.0
135	13.0	-2.0
136	15.0	-2.0
137	-16.0	-1.0
138	-14.0	-1.0
139	-12.0	-1.0
140	-10.0	-1.0
141	-8.0	-1.0
142	-6.0	-1.0
143	-4.0	-1.0
144	-2.0	-1.0
145	0.0	-1.0
146	2.0	-1.0
147	4.0	-1.0
148	6.0	-1.0
149	8.0	-1.0
150	10.0	-1.0
151	12.0	-1.0
152	14.0	-1.0
153	16.0	-1.0
154	-17.0	0.0
155	-15.0	0.0
156	-13.0	0.0
157	-11.0	0.0
158	-9.0	0.0
159	-7.0	0.0
160	-5.0	0.0
161	-3.0	0.0
162	-1.0	0.0
163	1.0	0.0
164	3.0	0.0
165	5.0	0.0
166	7.0	0.0
167	9.0	0.0
168	11.0	0.0
169	13.0	0.0
170	15.0	0.0
171	17.0	0.0
172	-16.0	1.0
173	-14.0	1.0
174	-12.0	1.0
175	-10.0	1.0
176	-8.0	1.0
177	-6.0	1.0
178	-4.0	1.0
179	-2.0	1.0
180	0.0	1.0
181	2.0	1.0
182	4.0	1.0
183	6.0	1.0
184	8.0	1.0
185	10.0	1.0
186	12.0	1.0
187	14.0	1.0
188	16.0	1.0
189	-15.0	2.0
190	-13.0	2.0
191	-11.0	2.0
192	-9.0	2.0
193	-7.0	2.0
194	-5.0	2.0
195	-3.0	2.0
196	-1.0	2.0
197	1.0	2.0
198	3.0	2.0
199	5.0	2.0
200	7.0	2.0
201	9.0	2.0
202	11.0	2.0
203	13.0	2.0
204	15.0	2.0
205	-14.0	3.0
206	-12.0	3.0
207	-10.0	3.0
208	-8.0	3.0
209	-6.0	3.0
210	-4.0	3.0
211	-2.0	3.0
212	0.0	3.0
213	2.0	3.0
214	4.0	3.0
215	6.0	3.0
216	8.0	3.0
217	10.0	3.0
218	12.0	3.0
219	14.0	3.0
220	-13.0	4.0
221	-11.0	4.0
222	-9.0	4.0
223	-7.0	4.0
224	-5.0	4.0
225	-3.0	4.0
226	-1.0	4.0
227	1.0	4.0
228	3.0	4.0
229	5.0	4.0
230	7.0	4.0
231	9.0	4.0
232	11.0	4.0
233	13.0	4.0
234	-12.0	5.0
235	-10.0	5.0
236	-8.0	5.0
237	-6.0	5.0
238	-4.0	5.0
239	-2.0	5.0
240	0.0	5.0
241	2.0	5.0
242	4.0	5.0
243	6.0	5.0
244	8.0	5.0
245	10.0	5.0
246	12.0	5.0
247	-11.0	6.0
248	-9.0	6.0
249	-7.0	6.0
250	-5.0	6.0
251	-3.0	6.0
252	-1.0	6.0
253	1.0	6.0
254	3.0	6.0
255	5.0	6.0
256	7.0	6.0
257	9.0	6.0
258	11.0	6.0
259	-10.0	7.0
260	-8.0	7.0
261	-6.0	7.0
262	-4.0	7.0
263	-2.0	7.0
264	0.0	7.0
265	2.0	7.0
266	4.0	7.0
267	6.0	7.0
268	8.0	7.0
269	10.0	7.0
270	-9.0	8.0
271	-7.0	8.0
272	-5.0	8.0
273	-3.0	8.0
274	-1.0	8.0
275	1.0	8.0
276	3.0	8.0
277	5.0	8.0
278	7.0	8.0
279	9.0	8.0
280	-8.0	9.0
281	-6.0	9.0
282	-4.0	9.0
283	-2.0	9.0
284	0.0	9.0
285	2.0	9.0
286	4.0	9.0
287	6.0	9.0
288	8.0	9.0
289	-7.0	10.0
290	-5.0	10.0
291	-3.0	10.0
292	-1.0	10.0
293	1.0	10.0
294	3.0	10.0
295	5.0	10.0
296	7.0	10.0
297	-6.0	11.0
298	-4.0	11.0
299	-2.0	11.0
300	0.0	11.0
301	2.0	11.0
302	4.0	11.0
303	6.0	11.0
304	-5.0	12.0
305	-3.0	12.0
306	-1.0	12.0
307	1.0	12.0
308	3.0	12.0
309	5.0	12.0
310	-4.0	13.0
311	-2.0	13.0
312	0.0	13.0
313	2.0	13.0
314	4.0	13.0
315	-3.0	14.0
316	-1.0	14.0
317	1.0	14.0
318	3.0	14.0
319	-2.0	15.0
320	0.0	15.0
321	2.0	15.0
322	-1.0	16.0
323	1.0	16.0
324	0.0	17.0
DEMAND_SECTION
1	0
2	300
3	300
4	180
5	300
6	180
7	128
8	180
9	180
10	128
11	100
12	128
13	180
14	128
15	100
16	81
17	100
18	128
19	128
20	100
21	81
22	69
23	81
24	100
25	128
26	100
27	81
28	69
29	60
30	69
31	81
32	100
33	100
34	81
35	69
36	60
37	52
38	60
39	69
40	81
41	100
42	81
43	69
44	60
45	52
46	47
47	52
48	60
49	69
50	81
51	81
52	69
53	60
54	52
55	47
56	42
57	47
58	52
59	60
60	69
61	81
62	69
63	60
64	52
65	47
66	42
67	39
68	42
69	47
70	52
71	60
72	69
73	69
74	60
75	52
76	47
77	42
78	39
79	36
80	39
81	42
82	47
83	52
84	60
85	69
86	60
87	52
88	47
89	42
90	39
91	36
92	33
93	36
94	39
95	42
96	47
97	52
98	60
99	60
100	52
101	47
102	42
103	39
104	36
105	33
106	31
107	33
108	36
109	39
110	42
111	47
112	52
113	60
114	52
115	47
116	42
117	39
118	36
119	33
120	31
121	29
122	31
123	33
124	36
125	39
126	42
127	47
128	52
129	52
130	47
131	42
132	39
133	36
134	33
135	31
136	29
137	27
138	29
139	31
140	33
141	36
142	39
143	42
144	47
145	52
146	47
147	42
148	39
149	36
150	33
151	31
152	29
153	27
154	25
155	27
156	29
157	31
158	33
159	36
160	39
161	42
162	47
163	47
164	42
165	39
166	36
167	33
168	31
169	29
170	27
171	25
172	25
173	27
174	29
175	31
176	33
177	36
178	39
179	42
180	47
181	42
182	39
183	36
184	33
185	31
186	29
187	27
188	25
189	25
190	27
191	29
192	31
193	33
194	36
195	39
196	42
197	42
198	39
199	36
200	33
201	31
202	29
203	27
204	25
205	25
206	27
207	29
208	31
209	33
210	36
211	39
212	42
213	39
214	36
215	33
216	31
217	29
218	27
219	25
220	25
221	27
222	29
223	31
224	33
225	36
226	39
227	39
228	36
229	33
230	31
231	29
232	27
233	25
234	25
235	27
236	29
237	31
238	33
239	36
240	39
241	36
242	33
243	31
244	29
245	27
246	25
247	25
248	27
249	29
250	31
251	33
252	36
253	36
254	33
255	31
256	29
257	27
258	25
259	25
260	27
261	29
262	31
263	33
264	36
265	33
266	31
267	29
268	27
269	25
270	25
271	27
272	29
273	31
274	33
275	33
276	31
277	29
278	27
279	25
280	25
281	27
282	29
283	31
284	33
285	31
286	29
287	27
288	25
289	25
290	27
291	29
292	31
293	31
294	29
295	27
296	25
297	25
298	27
299	29
300	31
301	29
302	27
303	25
304	25
305	27
306	29
307	29
308	27
309	25
310	25
311	27
312	29
313	27
314	25
315	25
316	27
317	27
318	25
319	25
320	27
321	25
322	25
323	25
324	25
DEPOT_SECTION
1
-1
EOF
