experiment/data/hgs-res/Vrp-Set-Golden-n324/Vrp-Set-Golden-n324-hgs/0.hgs1.tour
Route #1: 13 19 26 34 27 20 14 9 5
Route #2: 33 42 52 63 75 88 102 117 133 150 168 185 202 186 169 151 134 118 103 89 76 64 53 43
Route #3: 35 44 54 65 77 90 104 119 135 152 170 187 203 218 232 245 231 217 201 184 167 149 132 116 101 87 74 62
Route #4: 100 115 131 148 166 183 200 216 230 244 256 257 268 278 287 295 302 294 286 277 267 255 243 229 215 199 165 147 130 114 86
Route #5: 127 161 195 210 238 251 262 272 282 291 299 306 312 307 300 292 284 275 265 253 241 227 213 198 181 163 129 99
Route #6: 72 113 145 162 180 197 212 226 240 252 264 274 283 273 263 239 225 211 196 179 144 128 84
Route #7: 25 41 51 61 73 85 98 112 97 83 71 59 39 23
Route #8: 4 7 12 8
Route #9: 18 32 40 50 60 49 31 24 17
Route #10: 2 1
Route #11: 142 159 193 208 236 248 259 269 279 288 296 303 309 314 318 321 323 322 320 317 313 308 301 293 285 276 266 254 242 228 214 182 164 146
Route #12: 111 143 178 194 224 250 261 271 281 290 298 305 311 316 319 315 310 304 297 289 280 270 260 249 237 223 209 177 160 126
Route #13: 48 82 95 109 124 140 157 175 191 206 221 234 246 258 247 235 222 207 192 176 158 141 125 110 96 70
Route #14: 58 69 81 94 108 123 139 156 174 190 205 220 233 219 204 188 171 153 136 120 105 91 78 66 55 45 36 28
Route #15: 30 38 47 57 68 80 93 107 122 138 155 173 189 172 154 137 121 106 92 79 67 56 46 37
Route #16: 3 6 10 15 21 29 22 16 11
Cost 738.545
